c ---- [ banner ] ------------------------------------------------------------
c
c Kissat SAT Solver
c 
c Copyright (c) 2021-2024 Armin Biere University of Freiburg
c Copyright (c) 2019-2021 Armin Biere Johannes Kepler University Linz
c 
c Version 4.0.1 43f02cf3e992cb44653b35e5cb26f93281552ae0
c gcc (Ubuntu 13.2.0-23ubuntu4) 13.2.0 -W -Wall -O3 -DNDEBUG
c Thu Sep 12 12:27:46 CEST 2024 Linux abryzen9 6.8.0-41-generic x86_64
c
c ---- [ parsing ] -----------------------------------------------------------
c
c opened and reading DIMACS file:
c
c   /data/artifact/AMulet2.0_artifact/exp4/cnf_resyn3_64/64_64_U2_WT_BK_Multgen_resyn3.cnf
c
c parsed 'p cnf 27714 124920' header
c closing input after reading 2493272 bytes (2 MB)
c finished parsing after 0.02 seconds
c
c ---- [ options ] -----------------------------------------------------------
c
c --stable=0                       (different from default '1')
c
c ---- [ solving ] -----------------------------------------------------------
c
c  seconds switched rate     size/glue tier1  binary          remaining
c         MB reductions conflicts size  tier2    irredundant
c          level restarts redundant glue  trail          variables
c
c *  0.02 10 0 0 0  0 0   0   0 0.0 0 0 0 0 0% 3745 121173 27711 100%
c (  0.04 12 0 0 0  0 0   0   0 0.0 0 0 0 0 0% 3745 121173 27711 100%
c .  0.04 12 0 0 0  0 0   0   0 0.0 0 0 0 0 0% 3741 121173 27711 100%
c c  0.13 13 0 0 0  0 0   0   0 0.0 0 0 0 0 0% 3758 121172 27710 100%
c d  0.14 13 0 0 0  0 0   0   0 0.0 0 0 0 0 0% 3756 121172 27710 100%
c =  0.20 14 0 0 0  0 0   0   0 0.0 0 0 0 0 0% 4123 121172 27525 99%
c d  0.20 14 0 0 0  0 0   0   0 0.0 0 0 0 0 0% 3753 121172 27525 99%
c f  0.35 15 0 0 0  0 0   0   0 0.0 0 0 0 0 0% 9639 112302 30483 110%
c e  0.59 24 0 0 0  0 0   0   0 0.0 0 0 0 0 0% 3158 121511 21400 77%
c )  0.59 24 0 0 0  0 0   0   0 0.0 0 0 0 0 0% 3158 121511 21400 77%
c {  0.61 24 0 0 0  0 0   0   0 0.0 0 0 2 6 0% 3158 121511 21400 77%
c -  0.79 26 153 0 1 208 28 1000 782 1.6 7 4 3 9 17% 3220 121506 21400 77%
c -  1.16 26 166 0 2 421 39 2000 1521 2.5 12 5 3 9 23% 3258 121504 21400 77%
c d  1.28 26 195 0 2 487 41 2506 1959 2.5 12 5 3 9 25% 3272 121504 21396 77%
c u  1.31 26 195 0 2 487 41 2506 1621 2.5 12 5 3 9 25% 3276 121504 21396 77%
c v  1.33 26 195 0 2 487 41 2506 1359 2.5 12 5 3 9 25% 3276 121504 21396 77%
c w  1.35 26 195 0 2 487 41 2506 1354 2.5 12 5 3 9 25% 3276 121504 21396 77%
c x  1.38 26 195 0 2 487 41 2506 1354 2.5 12 5 3 9 25% 3284 121427 21396 77%
c =  1.46 26 195 0 2 487 41 2506 1354 2.5 12 5 3 9 25% 3608 121427 21234 77%
c d  1.47 26 195 0 2 487 41 2506 1351 2.5 12 5 3 9 25% 3281 121427 21234 77%
c
c  seconds   switched   rate       size/glue tier1    binary          remaining
c         MB  reductions conflicts       size  tier2     irredundant
c           level restarts    redundant    glue   trail          variables
c
c t  1.48 26 195 0 2 487 41 2506 1351 2.5 12 5 3 9 25% 3279 121427 21234 77%
c f  1.51 26 195 0 2 487 41 2506 1351 2.5 12 5 3 9 25% 3288 121410 21239 77%
c c  1.60 23 195 0 2 487 41 2506 1351 2.5 12 5 3 9 25% 3292 121398 21237 77%
c d  1.61 23 195 0 2 487 41 2506 1351 2.5 12 5 3 9 25% 3288 121398 21237 77%
c u  1.63 23 195 0 2 487 41 2506 1318 2.5 12 5 3 9 25% 3288 121398 21237 77%
c v  1.64 24 195 0 2 487 41 2506 1271 2.5 12 5 3 9 25% 3288 121398 21237 77%
c w  1.66 26 195 0 2 487 41 2506 1264 2.5 12 5 3 9 25% 3288 121398 21237 77%
c =  1.77 26 195 0 2 487 41 2506 1264 2.5 12 5 3 9 25% 3574 121398 21094 76%
c d  1.78 26 195 0 2 487 41 2506 1263 2.5 12 5 3 9 25% 3288 121398 21094 76%
c t  1.79 26 195 0 2 487 41 2506 1263 2.5 12 5 3 9 25% 3284 121398 21094 76%
c f  1.81 26 195 0 2 487 41 2506 1263 2.5 12 5 3 9 25% 3315 121351 21110 76%
c -  2.09 26 209 0 3 592 42 3414 1834 2.6 15 6 3 9 26% 3354 121351 21110 76%
c -  2.61 26 272 0 4 789 41 5146 3051 3.1 17 6 3 9 26% 3400 121348 21110 76%
c -  3.11 26 258 0 5 987 40 7146 4251 3.1 17 6 2 9 25% 3456 121346 21110 76%
c d  3.23 26 272 0 5 1041 40 7715 4752 3.0 16 5 2 9 25% 3442 121344 21095 76%
c u  3.26 26 272 0 5 1041 40 7715 4303 3.0 16 5 2 9 25% 3444 121344 21095 76%
c v  3.30 26 272 0 5 1041 40 7715 3632 3.0 16 5 2 9 25% 3444 121344 21095 76%
c w  3.33 26 272 0 5 1041 40 7715 3621 3.0 16 5 2 9 25% 3444 121344 21095 76%
c x  3.37 26 272 0 5 1041 40 7715 3621 3.0 16 5 2 9 25% 3450 120963 21095 76%
c =  3.53 26 272 0 5 1041 40 7715 3621 3.0 16 5 2 9 25% 3730 120963 20955 76%
c
c  seconds   switched    rate       size/glue tier1    binary          remaining
c         MB  reductions  conflicts       size  tier2     irredundant
c           level  restarts    redundant    glue   trail          variables
c
c d  3.54 26 272 0 5 1041 40 7715 3613 3.0 16 5 2 9 25% 3438 120963 20955 76%
c t  3.55 26 272 0 5 1041 40 7715 3613 3.0 16 5 2 9 25% 3421 120963 20955 76%
c f  3.59 26 272 0 5 1041 40 7715 3613 3.0 16 5 2 9 25% 3489 120861 20988 76%
c u  3.64 26 272 0 5 1041 40 7715 3538 3.0 16 5 2 9 25% 3491 120861 20988 76%
c v  3.66 26 272 0 5 1041 40 7715 3443 3.0 16 5 2 9 25% 3492 120861 20988 76%
c w  3.68 26 272 0 5 1041 40 7715 3434 3.0 16 5 2 9 25% 3492 120861 20988 76%
c x  3.74 26 272 0 5 1041 40 7715 3431 3.0 16 5 2 9 25% 3499 119205 20988 76%
c =  3.89 26 272 0 5 1041 40 7715 3431 3.0 16 5 2 9 25% 4189 119205 20643 74%
c d  3.90 26 272 0 5 1041 40 7715 3426 3.0 16 5 2 9 25% 3492 119205 20643 74%
c t  3.92 26 272 0 5 1041 40 7715 3426 3.0 16 5 2 9 25% 3460 119205 20643 74%
c f  3.96 26 272 0 5 1041 40 7715 3426 3.0 16 5 2 9 25% 3473 119186 20649 75%
c -  4.42 26 287 0 6 1181 40 9382 4401 3.1 17 5 2 8 25% 3520 119182 20649 75%
c o  4.70 26 281 0 6 1261 40 10004 4966 3.0 18 6 2 8 25% 3523 119182 20649 75%
c -  5.23 26 292 0 7 1436 40 11833 5949 3.1 19 6 2 8 26% 3551 119181 20649 75%
c s  5.48 26 290 0 7 1517 40 12520 6515 3.3 20 6 2 8 26% 3575 114952 20649 75%
c e  5.61 26 290 0 7 1517 40 12520 6515 3.3 20 6 2 8 26% 3049 115364 20103 73%
c s  5.62 26 290 0 7 1517 40 12520 6515 3.3 20 6 2 8 26% 3052 115248 20103 73%
c e  5.63 26 290 0 7 1517 40 12520 6515 3.3 20 6 2 8 26% 3045 115252 20099 73%
c ^  5.63 26 290 0 7 1517 40 12520 6515 3.3 20 6 2 8 26% 3045 115252 20099 73%
c -  6.26 26 276 0 8 1661 38 14478 7225 3.0 20 7 2 8 27% 3076 115251 20099 73%
c
c  seconds   switched    rate        size/glue tier1    binary          remaining
c         MB  reductions   conflicts       size  tier2     irredundant
c           level  restarts     redundant    glue   trail          variables
c
c c  6.87 26 276 0 8 1838 39 15802 8461 3.1 22 7 2 8 27% 3104 115149 20081 72%
c d  6.88 26 276 0 8 1838 39 15802 8448 3.1 22 7 2 8 27% 3068 115149 20081 72%
c u  6.92 26 276 0 8 1838 39 15802 7592 3.1 22 7 2 8 27% 3074 115149 20081 72%
c v  6.97 26 276 0 8 1838 39 15802 6428 3.1 22 7 2 8 27% 3075 115149 20081 72%
c w  7.05 26 276 0 8 1838 39 15802 6428 3.1 22 7 2 8 27% 3075 115149 20081 72%
c x  7.10 26 276 0 8 1838 39 15802 6428 3.1 22 7 2 8 27% 3123 114903 20081 72%
c =  7.34 26 276 0 8 1838 39 15802 6428 3.1 22 7 2 8 27% 3591 114903 19847 72%
c d  7.35 26 276 0 8 1838 39 15802 6421 3.1 22 7 2 8 27% 3112 114903 19847 72%
c t  7.37 26 276 0 8 1838 39 15802 6421 3.1 22 7 2 8 27% 3109 114903 19847 72%
c f  7.43 26 276 0 8 1838 39 15802 6421 3.1 22 7 2 8 27% 3142 114829 19865 72%
c b  7.45 26 276 0 8 1838 39 15802 6421 3.1 22 7 2 8 27% 3142 114829 19864 72%
c u  7.48 26 276 0 8 1838 39 15802 6283 3.1 22 7 2 8 27% 3144 114829 19864 72%
c v  7.51 26 276 0 8 1838 39 15802 6149 3.1 22 7 2 8 27% 3144 114829 19864 72%
c w  7.63 26 276 0 8 1838 39 15802 6133 3.1 22 7 2 8 27% 3144 114829 19864 72%
c x  7.67 26 276 0 8 1838 39 15802 6133 3.1 22 7 2 8 27% 3154 114630 19864 72%
c =  7.94 26 276 0 8 1838 39 15802 6133 3.1 22 7 2 8 27% 5492 114626 18695 67%
c d  7.95 26 276 0 8 1838 39 15802 6054 3.1 22 7 2 8 27% 3087 114626 18695 67%
c t  7.96 26 276 0 8 1838 39 15802 6054 3.1 22 7 2 8 27% 3013 114626 18695 67%
c f  8.02 26 276 0 8 1838 39 15802 6054 3.1 22 7 2 8 27% 3025 114590 18706 67%
c -  8.43 26 271 0 9 1934 38 17306 6641 3.2 22 7 2 8 27% 3029 114590 18706 67%
c
c  seconds   switched     rate        size/glue tier1    binary          remaining
c         MB   reductions   conflicts       size  tier2     irredundant
c           level   restarts     redundant    glue   trail          variables
c
c -  8.72 26 286 0 10 1988 34 20306 8305 3.1 21 7 2 7 26% 3166 114586 18706 67%
c o  8.73 26 285 0 10 1989 34 20381 8376 3.1 21 7 2 7 26% 3167 114586 18706 67%
c -  9.48 26 270 0 11 2205 32 23468 9913 3.1 21 7 2 7 25% 3200 114586 18706 67%
c s  9.76 26 265 0 11 2285 31 25031 11319 3.1 21 7 2 7 25% 3225 106111 18706 67%
c e  9.90 26 265 0 11 2285 31 25031 11319 3.1 21 7 2 7 25% 2854 106674 18382 66%
c s  9.90 26 265 0 11 2285 31 25031 11319 3.1 21 7 2 7 25% 2883 106458 18382 66%
c e  9.91 26 265 0 11 2285 31 25031 11319 3.1 21 7 2 7 25% 2882 106460 18381 66%
c ^  9.91 26 265 0 11 2285 31 25031 11319 3.1 21 7 2 7 25% 2882 106460 18381 66%
c - 10.18 26 267 0 12 2375 31 26786 11059 3.1 21 7 2 7 24% 2914 106460 18381 66%
c d 10.20 26 266 0 12 2375 31 26938 11156 3.1 21 7 2 7 24% 2915 106460 18375 66%
c u 10.26 26 266 0 12 2375 31 26938 9746 3.1 21 7 2 7 24% 2930 106460 18375 66%
c v 10.31 26 266 0 12 2375 31 26938 9221 3.1 21 7 2 7 24% 2930 106460 18375 66%
c w 10.32 26 266 0 12 2375 31 26938 9216 3.1 21 7 2 7 24% 2930 106460 18375 66%
c x 10.35 26 266 0 12 2375 31 26938 9216 3.1 21 7 2 7 24% 2932 106418 18375 66%
c = 10.56 26 266 0 12 2375 31 26938 9216 3.1 21 7 2 7 24% 5656 106418 17013 61%
c d 10.57 26 266 0 12 2375 31 26938 9149 3.1 21 7 2 7 24% 2887 106418 17013 61%
c t 10.59 26 266 0 12 2375 31 26938 9149 3.1 21 7 2 7 24% 2811 106418 17013 61%
c f 10.64 26 266 0 12 2375 31 26938 9149 3.1 21 7 2 7 24% 2875 106218 17047 62%
c u 10.71 26 266 0 12 2375 31 26938 8761 3.1 21 7 2 7 24% 2880 106218 17047 62%
c v 10.75 26 266 0 12 2375 31 26938 8209 3.1 21 7 2 7 24% 2882 106218 17047 62%
c
c  seconds   switched     rate        size/glue tier1    binary          remaining
c         MB   reductions   conflicts       size  tier2     irredundant
c           level   restarts     redundant    glue   trail          variables
c
c w 10.76 26 266 0 12 2375 31 26938 8208 3.1 21 7 2 7 24% 2882 106218 17047 62%
c = 10.95 26 266 0 12 2375 31 26938 8208 3.1 21 7 2 7 24% 5556 106218 15710 57%
c d 10.96 26 266 0 12 2375 31 26938 8135 3.1 21 7 2 7 24% 2849 106218 15710 57%
c t 10.98 26 266 0 12 2375 31 26938 8135 3.1 21 7 2 7 24% 2652 106218 15710 57%
c f 11.02 26 266 0 12 2375 31 26938 8135 3.1 21 7 2 7 24% 2691 106069 15744 57%
c - 11.71 26 266 0 13 2586 30 30250 10037 3.1 21 7 2 7 24% 2729 106065 15744 57%
c - 12.40 26 269 0 14 2814 29 33857 12065 3.1 20 7 2 7 24% 2808 106063 15744 57%
c - 13.10 26 264 0 15 3055 28 37598 13791 3.0 20 7 2 6 24% 2853 106060 15744 57%
c o 13.43 26 253 0 15 3170 27 40833 16421 3.0 20 7 2 6 23% 2928 106060 15744 57%
c c 13.61 26 252 0 15 3216 27 41267 16790 3.0 20 7 2 6 23% 3063 105466 15648 56%
c d 13.62 26 252 0 15 3216 27 41267 16440 3.0 20 7 2 6 23% 2871 105466 15648 56%
c u 13.69 26 252 0 15 3216 27 41267 14665 3.0 20 7 2 6 23% 2881 105466 15648 56%
c v 13.74 26 252 0 15 3216 27 41267 13940 3.0 20 7 2 6 23% 2881 105466 15648 56%
c w 13.79 26 252 0 15 3216 27 41267 13940 3.0 20 7 2 6 23% 2881 105466 15648 56%
c x 13.83 28 252 0 15 3216 27 41267 13940 3.0 20 7 2 6 23% 2881 105453 15648 56%
c = 14.05 28 252 0 15 3216 27 41267 13940 3.0 20 7 2 6 23% 3147 105449 15515 56%
c d 14.06 28 252 0 15 3216 27 41267 13889 3.0 20 7 2 6 23% 2857 105449 15504 56%
c t 14.08 28 252 0 15 3216 27 41267 13889 3.0 20 7 2 6 23% 2792 105449 15504 56%
c f 14.09 28 252 0 15 3216 27 41267 13889 3.0 20 7 2 6 23% 2819 105352 15525 56%
c u 14.16 28 252 0 15 3216 27 41267 13106 3.0 20 7 2 6 23% 2835 105352 15525 56%
c
c  seconds   switched     rate         size/glue tier1    binary          remaining
c         MB   reductions   conflicts        size  tier2     irredundant
c           level   restarts      redundant    glue   trail          variables
c
c v 14.22 28 252 0 15 3216 27 41267 12074 3.0 20 7 2 6 23% 2841 105352 15525 56%
c w 14.34 28 252 0 15 3216 27 41267 12064 3.0 20 7 2 6 23% 2841 105352 15525 56%
c = 14.56 28 252 0 15 3216 27 41267 12064 3.0 20 7 2 6 23% 2903 105352 15494 56%
c d 14.57 28 252 0 15 3216 27 41267 11970 3.0 20 7 2 6 23% 2830 105352 15494 56%
c t 14.59 28 252 0 15 3216 27 41267 11970 3.0 20 7 2 6 23% 2819 105352 15494 56%
c - 14.67 28 251 0 16 3228 27 41473 11040 3.0 20 7 2 6 23% 2820 105352 15494 56%
c - 15.27 28 244 0 17 3471 26 45473 13107 3.0 20 7 2 6 22% 2886 105350 15494 56%
c - 15.91 28 241 0 18 3716 26 49596 15238 3.0 20 7 2 6 22% 2984 105348 15494 56%
c s 16.44 28 240 0 18 3906 25 52138 17428 3.0 20 7 2 6 22% 3047 87752 15494 56%
c e 16.56 28 240 0 18 3906 25 52138 17428 3.0 20 7 2 6 22% 2692 88359 15166 55%
c 2 16.56 28 240 0 18 3906 25 52138 17428 3.0 20 7 2 6 22% 2683 88359 15166 55%
c s 16.56 28 240 0 18 3906 25 52138 17428 3.0 20 7 2 6 22% 2689 87880 15166 55%
c e 16.57 28 240 0 18 3906 25 52138 17428 3.0 20 7 2 6 22% 2689 87878 15163 55%
c ^ 16.57 28 240 0 18 3906 25 52138 17428 3.0 20 7 2 6 22% 2689 87878 15163 55%
c - 16.81 28 236 0 19 4021 25 53838 15921 3.0 20 7 2 6 22% 2710 87877 15163 55%
c - 17.31 28 231 0 20 4313 25 58196 17861 3.0 20 7 2 6 22% 2764 87876 15163 55%
c c 17.47 28 230 0 20 4407 25 58896 18454 3.0 20 7 2 6 22% 2873 87380 15088 54%
c d 17.48 28 230 0 20 4407 25 58896 18249 3.0 20 7 2 6 22% 2723 87380 15088 54%
c u 17.53 28 230 0 20 4407 25 58896 15578 3.0 20 7 2 6 22% 2753 87380 15088 54%
c v 17.58 28 230 0 20 4407 25 58896 14089 3.0 20 7 2 6 22% 2761 87380 15088 54%
c
c  seconds   switched     rate         size/glue tier1    binary         remaining
c         MB   reductions   conflicts        size  tier2     irredundant
c           level   restarts      redundant    glue   trail         variables
c
c w 17.63 28 230 0 20 4407 25 58896 14085 3.0 20 7 2 6 22% 2761 87380 15088 54%
c d 17.83 28 230 0 20 4407 25 58896 14070 3.0 20 7 2 6 22% 2741 87380 15078 54%
c t 17.84 28 230 0 20 4407 25 58896 14070 3.0 20 7 2 6 22% 2713 87380 15078 54%
c f 17.85 28 230 0 20 4407 25 58896 14070 3.0 20 7 2 6 22% 2711 87331 15088 54%
c c 17.89 28 230 0 20 4407 25 58896 14057 3.0 20 7 2 6 22% 2725 87262 15080 54%
c d 17.90 28 230 0 20 4407 25 58896 14057 3.0 20 7 2 6 22% 2709 87262 15080 54%
c u 17.94 28 230 0 20 4407 25 58896 13372 3.0 20 7 2 6 22% 2720 87262 15080 54%
c v 17.98 28 230 0 20 4407 25 58896 13040 3.0 20 7 2 6 22% 2720 87262 15080 54%
c w 18.01 28 230 0 20 4407 25 58896 13011 3.0 20 7 2 6 22% 2720 87262 15080 54%
c x 18.05 28 230 0 20 4407 25 58896 13010 3.0 20 7 2 6 22% 2722 87048 15080 54%
c d 18.05 28 230 0 20 4407 25 58896 13010 3.0 20 7 2 6 22% 2720 87048 15079 54%
c t 18.06 28 230 0 20 4407 25 58896 13010 3.0 20 7 2 6 22% 2716 87048 15079 54%
c - 18.38 28 224 0 21 4626 24 62670 14950 3.0 20 7 2 5 22% 2787 87048 15079 54%
c - 18.89 28 220 0 22 4971 24 67252 17346 3.0 20 7 2 5 22% 2871 87048 15079 54%
c o 19.32 28 217 0 22 5271 24 71019 20667 3.0 20 7 2 5 22% 2944 87048 15079 54%
c - 19.43 28 215 0 23 5337 24 71943 17268 3.0 20 7 1 5 21% 2966 87048 15079 54%
c - 20.23 28 210 0 24 5893 24 76738 17992 3.0 21 7 1 5 22% 3029 87048 15079 54%
c d 20.61 28 206 0 24 6151 24 79957 20427 3.0 21 7 1 5 22% 2935 87048 14989 54%
c u 20.66 28 206 0 24 6151 24 79957 18613 3.0 21 7 1 5 22% 2961 87048 14989 54%
c v 20.72 28 206 0 24 6151 24 79957 16027 3.0 21 7 1 5 22% 2974 87048 14989 54%
c
c  seconds   switched     rate         size/glue tier1    binary         remaining
c         MB   reductions   conflicts        size  tier2     irredundant
c           level   restarts      redundant    glue   trail         variables
c
c w 20.85 28 206 0 24 6151 24 79957 15970 3.0 21 7 1 5 22% 2974 87048 14989 54%
c = 21.06 28 206 0 24 6151 24 79957 15970 3.0 21 7 1 5 22% 3502 87040 14725 53%
c d 21.06 28 206 0 24 6151 24 79957 15747 3.0 21 7 1 5 22% 2907 87040 14719 53%
c t 21.07 28 206 0 24 6151 24 79957 15747 3.0 21 7 1 5 22% 2840 87040 14719 53%
c f 21.09 28 206 0 24 6151 24 79957 15747 3.0 21 7 1 5 22% 2840 87032 14720 53%
c c 21.13 28 206 0 24 6151 24 79957 15666 3.0 21 7 1 5 22% 2881 86875 14696 53%
c d 21.13 28 206 0 24 6151 24 79957 15666 3.0 21 7 1 5 22% 2833 86875 14696 53%
c u 21.16 28 206 0 24 6151 24 79957 15209 3.0 21 7 1 5 22% 2831 86875 14696 53%
c v 21.20 28 206 0 24 6151 24 79957 14605 3.0 21 7 1 5 22% 2836 86875 14696 53%
c w 21.27 28 206 0 24 6151 24 79957 14303 3.0 21 7 1 5 22% 2838 86875 14696 53%
c x 21.31 28 206 0 24 6151 24 79957 14299 3.0 21 7 1 5 22% 2838 86846 14696 53%
c = 21.61 28 206 0 24 6151 24 79957 14299 3.0 21 7 1 5 22% 3198 86842 14516 52%
c d 21.62 28 206 0 24 6151 24 79957 14168 3.0 21 7 1 5 22% 2817 86842 14516 52%
c t 21.63 28 206 0 24 6151 24 79957 14168 3.0 21 7 1 5 22% 2759 86842 14516 52%
c f 21.64 28 206 0 24 6151 24 79957 14168 3.0 21 7 1 5 22% 2770 86796 14522 52%
c - 21.89 28 205 0 25 6317 24 81636 13547 3.0 21 7 1 5 22% 2781 86796 14522 52%
c - 22.36 28 203 0 26 6633 23 86636 15583 3.0 21 7 1 5 22% 2854 86794 14522 52%
c - 23.07 28 197 0 27 7166 23 91737 17497 3.0 21 7 1 5 22% 2905 86793 14522 52%
c 2 23.71 28 193 0 27 7633 23 95802 21231 3.0 22 7 1 5 23% 2932 86793 14521 52%
c s 23.72 28 193 0 27 7633 23 95802 21231 3.0 22 7 1 5 23% 2938 83927 14521 52%
c
c  seconds   switched     rate         size/glue tier1    binary         remaining
c         MB   reductions   conflicts        size  tier2     irredundant
c           level   restarts      redundant    glue   trail         variables
c
c e 23.81 28 193 0 27 7633 23 95802 21231 3.0 22 7 1 5 23% 1894 86355 14006 51%
c 2 23.81 28 193 0 27 7633 23 95802 21231 3.0 22 7 1 5 23% 1891 86355 14006 51%
c s 23.82 28 193 0 27 7633 23 95802 21231 3.0 22 7 1 5 23% 1911 85704 14006 51%
c e 23.83 28 193 0 27 7633 23 95802 21231 3.0 22 7 1 5 23% 1861 85811 13981 50%
c ^ 23.83 28 193 0 27 7633 23 95802 21231 3.0 22 7 1 5 23% 1861 85811 13981 50%
c - 24.03 28 193 0 28 7749 23 96933 17480 3.0 22 7 1 5 23% 1864 85811 13981 50%
c - 24.75 28 194 0 29 8264 24 102225 18972 3.1 22 7 1 5 23% 1913 85810 13981 50%
c c 25.00 28 191 0 29 8416 23 104568 21022 3.1 22 7 1 5 23% 1982 85668 13960 50%
c d 25.01 28 191 0 29 8416 23 104568 20972 3.1 22 7 1 5 23% 1940 85668 13960 50%
c u 25.04 28 191 0 29 8416 23 104568 19376 3.1 22 7 1 5 23% 1954 85668 13960 50%
c v 25.10 28 191 0 29 8416 23 104568 16678 3.1 22 7 1 5 23% 1959 85668 13960 50%
c w 25.20 28 191 0 29 8416 23 104568 16349 3.1 22 7 1 5 23% 1959 85668 13960 50%
c = 25.53 28 191 0 29 8416 23 104568 16349 3.1 22 7 1 5 23% 2177 85668 13851 50%
c d 25.53 28 191 0 29 8416 23 104568 16272 3.1 22 7 1 5 23% 1947 85668 13851 50%
c t 25.54 28 191 0 29 8416 23 104568 16272 3.1 22 7 1 5 23% 1927 85668 13851 50%
c f 25.56 28 191 0 29 8416 23 104568 16272 3.1 22 7 1 5 23% 1953 85492 13865 50%
c u 25.63 28 191 0 29 8416 23 104568 15871 3.1 22 7 1 5 23% 1956 85492 13865 50%
c v 25.66 28 191 0 29 8416 23 104568 15277 3.1 22 7 1 5 23% 1956 85492 13865 50%
c w 25.75 28 191 0 29 8416 23 104568 15120 3.1 22 7 1 5 23% 1957 85492 13865 50%
c - 26.33 28 189 0 30 8617 23 107613 15502 3.1 22 7 1 5 23% 1990 85491 13865 50%
c
c  seconds   switched     rate          size/glue tier1    binary         remaining
c         MB   reductions   conflicts         size  tier2     irredundant
c           level   restarts       redundant    glue   trail         variables
c
c o 26.85 28 188 0 30 9031 23 111021 18697 3.1 23 7 1 5 23% 2011 85489 13865 50%
c - 27.15 28 189 0 31 9277 23 113091 17942 3.1 23 7 1 5 23% 2026 85489 13865 50%
c - 28.00 28 188 0 32 9978 24 118658 19749 3.1 23 7 1 5 24% 2053 85489 13865 50%
c - 28.53 28 182 0 33 10298 23 124315 21187 3.1 23 7 1 5 24% 2107 85489 13865 50%
c - 29.13 28 180 0 34 10665 23 130061 22392 3.1 23 7 1 5 24% 2155 85489 13865 50%
c d 29.51 28 178 0 34 10894 23 132812 24996 3.1 23 7 1 5 24% 2137 85489 13848 50%
c u 29.56 28 178 0 34 10894 23 132812 23205 3.1 23 7 1 5 24% 2160 85489 13848 50%
c v 29.64 28 178 0 34 10894 23 132812 19921 3.1 23 7 1 5 24% 2168 85489 13848 50%
c w 29.72 28 178 0 34 10894 23 132812 19909 3.1 23 7 1 5 24% 2168 85489 13848 50%
c x 29.79 28 178 0 34 10894 23 132812 19901 3.1 23 7 1 5 24% 2213 83833 13848 50%
c d 29.79 28 178 0 34 10894 23 132812 19901 3.1 23 7 1 5 24% 2209 83833 13846 50%
c t 29.80 28 178 0 34 10894 23 132812 19901 3.1 23 7 1 5 24% 2156 83833 13846 50%
c f 29.81 28 178 0 34 10894 23 132812 19901 3.1 23 7 1 5 24% 2158 83821 13847 50%
c c 29.85 28 178 0 34 10894 23 132812 19885 3.1 23 7 1 5 24% 2190 83717 13833 50%
c d 29.85 28 178 0 34 10894 23 132812 19885 3.1 23 7 1 5 24% 2162 83717 13833 50%
c u 29.89 28 178 0 34 10894 23 132812 19431 3.1 23 7 1 5 24% 2174 83717 13833 50%
c v 29.94 28 178 0 34 10894 23 132812 18737 3.1 23 7 1 5 24% 2177 83717 13833 50%
c w 30.10 28 178 0 34 10894 23 132812 18412 3.1 23 7 1 5 24% 2178 83717 13833 50%
c d 30.44 28 178 0 34 10894 23 132812 18407 3.1 23 7 1 5 24% 2172 83717 13830 50%
c t 30.45 28 178 0 34 10894 23 132812 18407 3.1 23 7 1 5 24% 2170 83717 13830 50%
c
c  seconds   switched      rate          size/glue tier1    binary         remaining
c         MB   reductions    conflicts         size  tier2     irredundant
c           level   restarts        redundant    glue   trail         variables
c
c f 30.45 28 178 0 34 10894 23 132812 18407 3.1 23 7 1 5 24% 2174 83692 13832 50%
c - 30.80 28 176 0 35 11135 22 135892 18228 3.1 23 7 1 5 24% 2190 83691 13832 50%
c - 31.21 28 171 0 36 11407 22 141808 20512 3.1 23 7 1 5 24% 2229 83691 13832 50%
c - 31.63 28 166 0 37 11708 21 147808 22128 3.0 22 7 1 5 24% 2304 83691 13832 50%
c - 32.22 28 161 0 38 12102 20 153891 23381 3.0 22 7 1 5 24% 2343 83691 13832 50%
c s 32.46 28 158 0 38 12288 20 157863 26902 2.9 22 7 1 5 23% 2400 83335 13832 50%
c e 32.57 28 158 0 38 12288 20 157863 26902 2.9 22 7 1 5 23% 1874 95519 12199 44%
c s 32.58 28 158 0 38 12288 20 157863 26902 2.9 22 7 1 5 23% 1890 92747 12199 44%
c e 32.61 28 158 0 38 12288 20 157863 26902 2.9 22 7 1 5 23% 1806 93017 12150 44%
c ^ 32.61 28 158 0 38 12288 20 157863 26902 2.9 22 7 1 5 23% 1806 93017 12150 44%
c - 32.84 29 157 0 39 12484 20 160055 18220 2.9 22 7 1 5 23% 1819 93017 12150 44%
c o 32.89 29 156 0 39 12512 20 161389 19336 2.9 21 7 1 5 23% 1835 93016 12150 44%
c c 33.23 29 153 0 39 12778 19 164790 22488 2.9 21 7 1 5 23% 1907 92870 12131 44%
c d 33.23 29 153 0 39 12778 19 164790 22450 2.9 21 7 1 5 23% 1869 92870 12131 44%
c u 33.27 29 153 0 39 12778 19 164790 20528 2.9 21 7 1 5 23% 1893 92870 12131 44%
c v 33.33 29 153 0 39 12778 19 164790 17692 2.9 21 7 1 5 23% 1900 92870 12131 44%
c w 33.39 29 153 0 39 12778 19 164790 17653 2.9 21 7 1 5 23% 1900 92870 12131 44%
c x 33.45 29 153 0 39 12778 19 164790 17645 2.9 21 7 1 5 23% 1948 92561 12131 44%
c d 33.45 29 153 0 39 12778 19 164790 17631 2.9 21 7 1 5 23% 1924 92553 12119 44%
c t 33.46 29 153 0 39 12778 19 164790 17631 2.9 21 7 1 5 23% 1848 92553 12119 44%
c
c  seconds   switched      rate          size/glue tier1    binary         remaining
c         MB   reductions    conflicts         size  tier2     irredundant
c           level   restarts        redundant    glue   trail         variables
c
c c 33.56 29 153 0 39 12778 19 164790 17626 2.9 21 7 1 5 23% 1852 92545 12118 44%
c d 33.56 29 153 0 39 12778 19 164790 17626 2.9 21 7 1 5 23% 1850 92545 12118 44%
c u 33.60 29 153 0 39 12778 19 164790 17350 2.9 21 7 1 5 23% 1855 92545 12118 44%
c v 33.64 29 153 0 39 12778 19 164790 16825 2.9 21 7 1 5 23% 1856 92545 12118 44%
c w 33.71 29 153 0 39 12778 19 164790 16413 2.9 21 7 1 5 23% 1856 92545 12118 44%
c x 33.76 29 153 0 39 12778 19 164790 16413 2.9 21 7 1 5 23% 1856 92526 12118 44%
c d 33.77 29 153 0 39 12778 19 164790 16412 2.9 21 7 1 5 23% 1854 92526 12117 44%
c t 33.77 29 153 0 39 12778 19 164790 16412 2.9 21 7 1 5 23% 1850 92526 12117 44%
c - 33.86 29 153 0 40 12822 19 166299 15057 2.9 21 7 1 5 23% 1877 92526 12117 44%
c - 34.46 29 150 0 41 13284 19 172623 17998 2.8 21 7 1 5 23% 1913 92524 12117 44%
c - 34.88 29 146 0 42 13654 18 179026 20354 2.8 21 7 1 5 22% 1978 92524 12117 44%
c - 35.50 30 142 0 43 14138 18 185508 22029 2.8 20 7 1 5 23% 2017 92521 12117 44%
c - 36.02 30 138 0 44 14586 18 192068 23167 2.7 20 7 1 5 22% 2083 92520 12117 44%
c - 36.26 30 133 0 45 14833 17 198702 23938 2.7 20 7 1 5 22% 2140 92519 12117 44%
c d 36.34 30 132 0 45 14904 17 200570 25301 2.7 20 7 1 5 22% 1966 92515 12021 43%
c u 36.38 30 132 0 45 14904 17 200570 23532 2.7 20 7 1 5 22% 2002 92515 12021 43%
c v 36.46 30 132 0 45 14904 17 200570 20312 2.7 20 7 1 5 22% 2022 92515 12021 43%
c w 36.50 30 132 0 45 14904 17 200570 20001 2.7 20 7 1 5 22% 2022 92515 12021 43%
c d 36.79 30 132 0 45 14904 17 200570 19992 2.7 20 7 1 5 22% 2010 92515 12015 43%
c t 36.79 30 132 0 45 14904 17 200570 19992 2.7 20 7 1 5 22% 1983 92515 12015 43%
c
c  seconds   switched      rate          size/glue tier1    binary         remaining
c         MB   reductions    conflicts         size  tier2     irredundant
c           level   restarts        redundant    glue   trail         variables
c
c c 36.83 30 132 0 45 14904 17 200570 19992 2.7 20 7 1 5 22% 2030 92200 11988 43%
c d 36.84 30 132 0 45 14904 17 200570 19941 2.7 20 7 1 5 22% 1976 92200 11988 43%
c u 36.87 30 132 0 45 14904 17 200570 19568 2.7 20 7 1 5 22% 1984 92200 11988 43%
c v 36.92 30 132 0 45 14904 17 200570 18769 2.7 20 7 1 5 22% 1987 92200 11988 43%
c w 36.95 30 132 0 45 14904 17 200570 18630 2.7 20 7 1 5 22% 1987 92200 11988 43%
c x 37.00 30 132 0 45 14904 17 200570 18628 2.7 20 7 1 5 22% 1987 92194 11988 43%
c d 37.00 30 132 0 45 14904 17 200570 18624 2.7 20 7 1 5 22% 1983 92194 11986 43%
c t 37.01 30 132 0 45 14904 17 200570 18624 2.7 20 7 1 5 22% 1978 92194 11986 43%
c - 37.17 30 129 0 46 15117 16 205410 18911 2.7 20 7 1 5 21% 1999 92194 11986 43%
c - 37.34 30 124 0 47 15312 15 212193 21275 2.7 19 7 1 5 20% 2043 92194 11986 43%
c - 37.49 30 118 0 48 15492 15 219048 22945 2.7 19 7 1 5 19% 2094 92194 11986 43%
c o 37.56 30 116 0 48 15556 14 222172 25654 2.6 19 7 1 5 19% 2116 92194 11986 43%
c - 37.66 30 113 0 49 15710 14 225977 24230 2.6 19 7 1 5 18% 2157 92194 11986 43%
c - 37.82 30 108 0 50 15918 13 232978 25638 2.6 18 7 1 5 17% 2206 92192 11986 43%
c i 37.85 30 107 0 50 15948 13 233975 26533 2.6 18 7 1 5 17% 2214 92192 11985 43%
c i 37.85 30 107 0 50 15951 13 234281 26818 2.6 18 7 1 5 17% 2215 92192 11950 43%
c i 37.87 30 106 0 50 15968 13 235237 27646 2.6 18 7 1 5 17% 2222 92192 11949 43%
c i 37.88 30 106 0 50 15968 13 235606 27934 2.6 18 7 1 5 17% 2227 92192 11942 43%
c i 37.88 30 106 0 50 15968 13 235624 27941 2.6 18 7 1 5 17% 2228 92192 11941 43%
c i 37.88 30 106 0 50 15968 13 235632 27941 2.6 18 7 1 5 17% 2232 92192 11938 43%
c
c  seconds   switched      rate          size/glue tier1    binary         remaining
c         MB   reductions    conflicts         size  tier2     irredundant
c           level   restarts        redundant    glue   trail         variables
c
c i 37.88 30 106 0 50 15968 13 235659 27948 2.6 18 7 1 5 17% 2236 92192 11889 43%
c i 37.88 30 106 0 50 15968 13 235665 27946 2.6 18 7 1 5 17% 2239 92191 11888 43%
c } 37.88 30 106 0 50 15968 13 235667 27946 2.6 18 7 1 5 17% 2239 92191 11884 43%
c 0 37.88 30 106 0 50 15968 13 235667 27946 2.6 18 7 1 5 17% 2239 92191 11884 43%
c
c ---- [ result ] ------------------------------------------------------------
c
s UNSATISFIABLE
c
c ---- [ profiling ] ---------------------------------------------------------
c
c          27.05   71.42 %  search
c          27.05   71.42 %  focused
c          10.22   26.98 %  simplify
c           9.72   25.65 %  probe
c           3.83   10.12 %  sweep
c           3.73    9.84 %  vivify
c           0.81    2.13 %  eliminate
c           0.80    2.10 %  factor
c           0.61    1.61 %  congruence
c           0.58    1.54 %  substitute
c           0.55    1.45 %  preprocess
c           0.26    0.67 %  reduce
c           0.23    0.62 %  fastel
c           0.12    0.32 %  subsume
c           0.10    0.26 %  transitive
c           0.07    0.18 %  backbone
c           0.04    0.10 %  lucky
c           0.02    0.06 %  parse
c =============================================
c          37.88  100.00 %  total
c
c ---- [ statistics ] --------------------------------------------------------
c
c chronological:                         6755                3 %  conflicts
c conflicts:                           235667             6221.56 per second
c congruent:                              306                1 %  variables
c decisions:                          3947267               16.75 per conflict
c eliminated:                           12511               45 %  variables
c factored:                              3170               11 %  variables
c fast_eliminated:                       9083               73 %  eliminated
c fast_strengthened:                       21                1 %  per strengthened
c fast_subsumed:                           66                0 %  per subsumed
c iterations:                               9                0 %  variables
c propagations:                     149841709          3955792    per second
c reductions:                              50             4713    interval
c reordered:                                7            33667    interval
c restarts:                             15968               15    interval
c strengthened:                          3730                0 %  checks
c substituted:                           6382               23 %  variables
c subsumed:                             37732                1 %  checks
c switched:                                 0                0    interval
c vivified:                             71452               14 %  checks
c
c ---- [ glue usage ] --------------------------------------------------------
c
c focused glue 1 used 447769 clauses 58.23% accumulated 58.23% tier1
c focused glue 2 used 147924 clauses 19.24% accumulated 77.47%
c focused glue 3 used  53311 clauses  6.93% accumulated 84.40%
c focused glue 4 used  31606 clauses  4.11% accumulated 88.51%
c focused glue 5 used  21361 clauses  2.78% accumulated 91.29% tier2
c
c ---- [ resources ] ---------------------------------------------------------
c
c maximum-resident-set-size:         31952896 bytes         30 MB
c process-time:                            38s              37.88 seconds
c
c ---- [ shutting down ] -----------------------------------------------------
c
c exit 20
